NAME: cuum530.tsp
TYPE: TSP
COMMENT: User-generated TSP file
DIMENSION: 530
EDGE_WEIGHT_TYPE: EUC_2D
NODE_COORD_SECTION
1 125.0 102.0
2 222.0 347.0
3 476.0 136.0
4 504.0 119.0
5 11.0 303.0
6 51.0 491.0
7 328.0 284.0
8 454.0 230.0
9 363.0 515.0
10 287.0 475.0
11 128.0 83.0
12 75.0 428.0
13 382.0 513.0
14 108.0 85.0
15 447.0 379.0
16 522.0 526.0
17 215.0 303.0
18 314.0 369.0
19 97.0 115.0
20 483.0 146.0
21 188.0 438.0
22 225.0 25.0
23 120.0 196.0
24 139.0 104.0
25 389.0 514.0
26 105.0 522.0
27 49.0 525.0
28 526.0 414.0
29 195.0 135.0
30 235.0 345.0
31 435.0 39.0
32 460.0 439.0
33 418.0 258.0
34 524.0 337.0
35 149.0 298.0
36 289.0 56.0
37 96.0 377.0
38 413.0 340.0
39 284.0 338.0
40 221.0 199.0
41 353.0 495.0
42 21.0 474.0
43 135.0 388.0
44 116.0 64.0
45 399.0 406.0
46 131.0 4.0
47 129.0 331.0
48 271.0 244.0
49 264.0 426.0
50 390.0 120.0
51 488.0 62.0
52 247.0 441.0
53 393.0 62.0
54 517.0 335.0
55 137.0 29.0
56 191.0 315.0
57 476.0 14.0
58 472.0 459.0
59 205.0 178.0
60 76.0 309.0
61 448.0 7.0
62 279.0 508.0
63 87.0 396.0
64 220.0 346.0
65 397.0 384.0
66 508.0 490.0
67 144.0 178.0
68 214.0 3.0
69 253.0 506.0
70 358.0 495.0
71 114.0 108.0
72 153.0 523.0
73 102.0 253.0
74 50.0 110.0
75 315.0 240.0
76 228.0 264.0
77 402.0 264.0
78 520.0 22.0
79 433.0 475.0
80 33.0 528.0
81 275.0 206.0
82 152.0 207.0
83 472.0 16.0
84 230.0 44.0
85 80.0 195.0
86 254.0 383.0
87 34.0 515.0
88 172.0 350.0
89 32.0 353.0
90 214.0 348.0
91 223.0 131.0
92 50.0 189.0
93 516.0 524.0
94 444.0 67.0
95 202.0 301.0
96 24.0 450.0
97 289.0 148.0
98 436.0 230.0
99 360.0 366.0
100 415.0 491.0
101 148.0 161.0
102 59.0 477.0
103 141.0 32.0
104 86.0 194.0
105 362.0 426.0
106 113.0 385.0
107 421.0 107.0
108 329.0 498.0
109 259.0 115.0
110 54.0 105.0
111 278.0 108.0
112 97.0 264.0
113 520.0 115.0
114 150.0 219.0
115 142.0 59.0
116 343.0 506.0
117 273.0 228.0
118 426.0 390.0
119 283.0 271.0
120 169.0 136.0
121 408.0 69.0
122 324.0 222.0
123 302.0 447.0
124 308.0 171.0
125 79.0 137.0
126 177.0 5.0
127 460.0 419.0
128 56.0 78.0
129 152.0 65.0
130 431.0 331.0
131 254.0 213.0
132 310.0 337.0
133 241.0 83.0
134 170.0 59.0
135 160.0 238.0
136 334.0 459.0
137 457.0 11.0
138 235.0 453.0
139 445.0 205.0
140 64.0 227.0
141 296.0 104.0
142 223.0 164.0
143 316.0 170.0
144 354.0 225.0
145 501.0 160.0
146 286.0 328.0
147 430.0 271.0
148 294.0 498.0
149 456.0 95.0
150 245.0 346.0
151 42.0 486.0
152 6.0 448.0
153 405.0 381.0
154 155.0 503.0
155 408.0 163.0
156 484.0 371.0
157 344.0 325.0
158 202.0 263.0
159 58.0 19.0
160 392.0 414.0
161 514.0 140.0
162 376.0 195.0
163 451.0 318.0
164 49.0 120.0
165 498.0 88.0
166 278.0 146.0
167 449.0 233.0
168 412.0 88.0
169 334.0 303.0
170 297.0 3.0
171 126.0 205.0
172 68.0 69.0
173 142.0 448.0
174 513.0 269.0
175 46.0 228.0
176 381.0 349.0
177 298.0 381.0
178 189.0 357.0
179 408.0 502.0
180 470.0 474.0
181 524.0 350.0
182 74.0 182.0
183 265.0 292.0
184 466.0 313.0
185 158.0 430.0
186 150.0 336.0
187 432.0 486.0
188 283.0 207.0
189 94.0 468.0
190 263.0 496.0
191 168.0 340.0
192 229.0 297.0
193 440.0 407.0
194 349.0 493.0
195 493.0 435.0
196 330.0 369.0
197 483.0 154.0
198 171.0 266.0
199 486.0 235.0
200 516.0 419.0
201 479.0 416.0
202 343.0 191.0
203 150.0 246.0
204 366.0 503.0
205 54.0 99.0
206 247.0 299.0
207 298.0 418.0
208 164.0 238.0
209 467.0 27.0
210 2.0 507.0
211 5.0 378.0
212 438.0 49.0
213 511.0 495.0
214 137.0 54.0
215 145.0 341.0
216 143.0 93.0
217 404.0 52.0
218 402.0 248.0
219 13.0 324.0
220 159.0 431.0
221 280.0 196.0
222 326.0 299.0
223 330.0 278.0
224 453.0 54.0
225 231.0 155.0
226 418.0 82.0
227 462.0 193.0
228 99.0 484.0
229 517.0 502.0
230 231.0 238.0
231 368.0 364.0
232 506.0 332.0
233 68.0 115.0
234 228.0 281.0
235 145.0 22.0
236 445.0 413.0
237 428.0 6.0
238 471.0 169.0
239 429.0 473.0
240 277.0 162.0
241 278.0 77.0
242 321.0 38.0
243 107.0 74.0
244 211.0 328.0
245 417.0 328.0
246 121.0 165.0
247 317.0 177.0
248 30.0 171.0
249 265.0 313.0
250 23.0 496.0
251 444.0 343.0
252 529.0 205.0
253 54.0 386.0
254 155.0 214.0
255 165.0 189.0
256 388.0 189.0
257 459.0 383.0
258 457.0 6.0
259 109.0 211.0
260 308.0 369.0
261 194.0 162.0
262 60.0 68.0
263 455.0 150.0
264 530.0 480.0
265 262.0 506.0
266 399.0 434.0
267 159.0 400.0
268 470.0 417.0
269 2.0 528.0
270 218.0 125.0
271 285.0 509.0
272 89.0 54.0
273 376.0 129.0
274 514.0 458.0
275 141.0 305.0
276 260.0 38.0
277 390.0 391.0
278 293.0 371.0
279 125.0 29.0
280 50.0 381.0
281 477.0 228.0
282 382.0 20.0
283 429.0 155.0
284 248.0 29.0
285 427.0 242.0
286 26.0 417.0
287 374.0 14.0
288 260.0 69.0
289 212.0 15.0
290 57.0 173.0
291 508.0 431.0
292 56.0 31.0
293 91.0 438.0
294 473.0 385.0
295 463.0 197.0
296 7.0 379.0
297 81.0 42.0
298 120.0 118.0
299 184.0 187.0
300 159.0 402.0
301 85.0 194.0
302 314.0 146.0
303 129.0 279.0
304 309.0 293.0
305 170.0 370.0
306 147.0 77.0
307 19.0 452.0
308 386.0 503.0
309 94.0 462.0
310 351.0 456.0
311 159.0 378.0
312 318.0 273.0
313 258.0 49.0
314 398.0 38.0
315 381.0 302.0
316 182.0 203.0
317 21.0 454.0
318 88.0 384.0
319 263.0 292.0
320 369.0 393.0
321 44.0 176.0
322 61.0 314.0
323 50.0 348.0
324 376.0 306.0
325 279.0 398.0
326 364.0 175.0
327 333.0 212.0
328 341.0 453.0
329 314.0 100.0
330 153.0 210.0
331 494.0 498.0
332 414.0 292.0
333 259.0 281.0
334 4.0 164.0
335 216.0 53.0
336 260.0 231.0
337 226.0 380.0
338 302.0 50.0
339 142.0 398.0
340 151.0 370.0
341 147.0 71.0
342 339.0 379.0
343 370.0 398.0
344 113.0 47.0
345 46.0 284.0
346 141.0 257.0
347 23.0 517.0
348 103.0 6.0
349 215.0 338.0
350 435.0 339.0
351 389.0 108.0
352 47.0 191.0
353 311.0 498.0
354 358.0 268.0
355 334.0 344.0
356 26.0 25.0
357 353.0 24.0
358 72.0 451.0
359 422.0 73.0
360 320.0 156.0
361 424.0 227.0
362 310.0 452.0
363 423.0 432.0
364 126.0 152.0
365 107.0 156.0
366 278.0 155.0
367 160.0 529.0
368 362.0 71.0
369 345.0 470.0
370 377.0 302.0
371 366.0 90.0
372 408.0 130.0
373 119.0 488.0
374 306.0 31.0
375 528.0 125.0
376 283.0 156.0
377 422.0 266.0
378 398.0 395.0
379 360.0 69.0
380 382.0 246.0
381 396.0 59.0
382 216.0 430.0
383 162.0 63.0
384 359.0 266.0
385 423.0 152.0
386 125.0 273.0
387 479.0 400.0
388 70.0 157.0
389 454.0 149.0
390 431.0 289.0
391 110.0 201.0
392 246.0 418.0
393 329.0 67.0
394 82.0 429.0
395 272.0 198.0
396 308.0 29.0
397 516.0 128.0
398 281.0 452.0
399 35.0 504.0
400 513.0 188.0
401 432.0 22.0
402 331.0 268.0
403 498.0 149.0
404 287.0 301.0
405 3.0 161.0
406 201.0 521.0
407 350.0 336.0
408 50.0 185.0
409 435.0 284.0
410 88.0 514.0
411 59.0 501.0
412 210.0 520.0
413 331.0 4.0
414 497.0 527.0
415 214.0 529.0
416 485.0 409.0
417 460.0 34.0
418 406.0 169.0
419 281.0 528.0
420 286.0 286.0
421 10.0 519.0
422 499.0 219.0
423 168.0 160.0
424 370.0 420.0
425 447.0 3.0
426 418.0 120.0
427 254.0 391.0
428 42.0 207.0
429 363.0 163.0
430 116.0 62.0
431 321.0 176.0
432 415.0 269.0
433 111.0 356.0
434 434.0 298.0
435 470.0 419.0
436 313.0 424.0
437 339.0 36.0
438 530.0 314.0
439 122.0 373.0
440 215.0 2.0
441 398.0 278.0
442 294.0 276.0
443 97.0 59.0
444 198.0 226.0
445 329.0 192.0
446 182.0 78.0
447 190.0 362.0
448 168.0 113.0
449 353.0 375.0
450 278.0 508.0
451 244.0 305.0
452 63.0 305.0
453 88.0 207.0
454 306.0 277.0
455 364.0 328.0
456 327.0 68.0
457 327.0 187.0
458 114.0 22.0
459 48.0 276.0
460 512.0 1.0
461 363.0 299.0
462 133.0 52.0
463 407.0 304.0
464 230.0 273.0
465 515.0 451.0
466 305.0 199.0
467 120.0 56.0
468 347.0 128.0
469 395.0 442.0
470 474.0 431.0
471 109.0 323.0
472 81.0 326.0
473 55.0 46.0
474 303.0 14.0
475 425.0 171.0
476 241.0 432.0
477 188.0 472.0
478 154.0 39.0
479 391.0 19.0
480 27.0 453.0
481 489.0 95.0
482 221.0 390.0
483 434.0 201.0
484 266.0 481.0
485 449.0 266.0
486 147.0 262.0
487 121.0 173.0
488 488.0 431.0
489 463.0 451.0
490 304.0 502.0
491 253.0 155.0
492 36.0 235.0
493 500.0 208.0
494 335.0 493.0
495 41.0 130.0
496 96.0 285.0
497 494.0 300.0
498 495.0 227.0
499 37.0 388.0
500 356.0 24.0
501 385.0 355.0
502 86.0 343.0
503 123.0 60.0
504 475.0 470.0
505 37.0 57.0
506 444.0 291.0
507 148.0 251.0
508 415.0 245.0
509 22.0 360.0
510 96.0 158.0
511 93.0 445.0
512 52.0 164.0
513 327.0 190.0
514 431.0 289.0
515 88.0 214.0
516 261.0 470.0
517 4.0 207.0
518 97.0 217.0
519 427.0 369.0
520 434.0 70.0
521 197.0 415.0
522 340.0 137.0
523 161.0 251.0
524 177.0 78.0
525 493.0 423.0
526 53.0 209.0
527 96.0 416.0
528 397.0 227.0
529 501.0 24.0
530 342.0 331.0
EOF





